c A SAT instance generated from a 3-CNF formula that had 36 clauses and 9 variables
p cnf 9 36
-7 6 3 0
9 -6 2 0
-7 3 -9 0
-7 -9 5 0
-4 8 -3 0
-7 8 -5 0
9 -3 1 0
-4 2 5 0
-6 4 7 0
8 2 -1 0
4 -7 9 0
-7 5 2 0
-1 2 -5 0
9 -6 4 0
-1 -6 -3 0
3 9 8 0
-6 -9 -5 0
-1 -9 5 0
9 3 -2 0
7 3 9 0
-4 -2 -7 0
-4 2 1 0
7 -6 -8 0
-8 -2 9 0
-1 -6 8 0
8 -5 -7 0
-3 2 -6 0
6 5 -3 0
-1 3 -4 0
-7 -4 -1 0
-9 -4 3 0
5 2 3 0
-2 -8 -4 0
8 -1 -9 0
2 -9 -3 0
-1 7 -6 0
